<number of tasks>
50

<cycle time>
1000

<order strength>
0.595


<task times>
1 453
2 106
3 220
4 116
5 48
6 93
7 512
8 477
9 517
10 173
11 191
12 526
13 107
14 110
15 53
16 235
17 47
18 346
19 434
20 263
21 285
22 469
23 216
24 87
25 189
26 462
27 355
28 344
29 103
30 375
31 222
32 220
33 543
34 213
35 214
36 563
37 353
38 66
39 297
40 165
41 88
42 153
43 109
44 22
45 65
46 442
47 479
48 517
49 515
50 222

<precedence relations>
1,7
2,6
2,9
2,10
3,8
3,9
4,9
4,10
5,9
6,12
7,14
8,13
9,11
9,14
9,15
10,14
10,15
11,16
12,18
13,19
14,17
14,18
14,19
14,20
15,17
15,19
15,20
16,21
17,22
17,23
18,23
19,44
19,47
19,50
20,23
21,24
22,25
23,26
23,27
24,30
25,28
26,29
27,30
28,31
29,33
30,32
30,33
30,34
30,35
30,36
30,37
31,38
32,39
33,40
33,46
34,40
35,40
35,46
36,40
37,50
38,41
39,42
40,43
40,44
40,45
41,46
42,46
43,47
43,48
43,49
43,50
44,48
45,47
45,48

<end>
